(set-info :smt-lib-version 2.6)
(set-logic QF_NIA)
(set-info :source |
 more info in 'N. P. Lopes, L. Aksoy, V. Manquinho, J. Monteiro.
 Optimally Solving the MCM Problem Using Pseudo-Boolean Satisfiability.
 Technical Report RT/43/2010, INESC-ID, Nov. 2010'. |)
(set-info :category "industrial")
(set-info :status sat)
(declare-fun X9 () Int)
(declare-fun X10 () Int)
(declare-fun S0 () Int)
(declare-fun S1 () Int)
(declare-fun S2 () Int)
(declare-fun S3 () Int)
(define-fun power2 ((x Int)) Bool
  (or (= x 1024) (= x 512) (= x 256) (= x 128) (= x 64) (= x 32) (= x 16) (= x 8) (= x 4) (= x 2) (= x 1)))
(assert (or
 (= X9 (+ S0 S1))
 (= X9 (- S0 S1))
 (= X9 (+ (* 129 S0) S1))
 (= X9 (- (* 129 S0) S1))
 (= X9 (- S0 (* 129 S1)))
 (= X9 (+ (* 129 S0) (* 129 S1)))
 (= X9 (- (* 129 S0) (* 129 S1)))
 (= X9 (+ (* 129 S0) (* 3 S1)))
 (= X9 (- (* 129 S0) (* 3 S1)))
 (= X9 (- (* 3 S0) (* 129 S1)))
 (= X9 (+ (* 129 S0) (* 145 S1)))
 (= X9 (- (* 129 S0) (* 145 S1)))
 (= X9 (- (* 145 S0) (* 129 S1)))
 (= X9 (+ (* 129 S0) (* 403 S1)))
 (= X9 (- (* 129 S0) (* 403 S1)))
 (= X9 (- (* 403 S0) (* 129 S1)))
 (= X9 (+ (* 129 S0) (* 411 S1)))
 (= X9 (- (* 129 S0) (* 411 S1)))
 (= X9 (- (* 411 S0) (* 129 S1)))
 (= X9 (+ (* 129 S0) (* 109 S1)))
 (= X9 (- (* 129 S0) (* 109 S1)))
 (= X9 (- (* 109 S0) (* 129 S1)))
 (= X9 (+ (* 129 S0) (* 315 S1)))
 (= X9 (- (* 129 S0) (* 315 S1)))
 (= X9 (- (* 315 S0) (* 129 S1)))
 (= X9 (+ (* 129 S0) (* 573 S1)))
 (= X9 (- (* 129 S0) (* 573 S1)))
 (= X9 (- (* 573 S0) (* 129 S1)))
 (= X9 (+ (* 129 S0) (* 627 S1)))
 (= X9 (- (* 129 S0) (* 627 S1)))
 (= X9 (- (* 627 S0) (* 129 S1)))
 (= X9 (+ (* 3 S0) S1))
 (= X9 (- (* 3 S0) S1))
 (= X9 (- S0 (* 3 S1)))
 (= X9 (+ (* 3 S0) (* 3 S1)))
 (= X9 (- (* 3 S0) (* 3 S1)))
 (= X9 (+ (* 3 S0) (* 145 S1)))
 (= X9 (- (* 3 S0) (* 145 S1)))
 (= X9 (- (* 145 S0) (* 3 S1)))
 (= X9 (+ (* 3 S0) (* 403 S1)))
 (= X9 (- (* 3 S0) (* 403 S1)))
 (= X9 (- (* 403 S0) (* 3 S1)))
 (= X9 (+ (* 3 S0) (* 411 S1)))
 (= X9 (- (* 3 S0) (* 411 S1)))
 (= X9 (- (* 411 S0) (* 3 S1)))
 (= X9 (+ (* 3 S0) (* 109 S1)))
 (= X9 (- (* 3 S0) (* 109 S1)))
 (= X9 (- (* 109 S0) (* 3 S1)))
 (= X9 (+ (* 3 S0) (* 315 S1)))
 (= X9 (- (* 3 S0) (* 315 S1)))
 (= X9 (- (* 315 S0) (* 3 S1)))
 (= X9 (+ (* 3 S0) (* 573 S1)))
 (= X9 (- (* 3 S0) (* 573 S1)))
 (= X9 (- (* 573 S0) (* 3 S1)))
 (= X9 (+ (* 3 S0) (* 627 S1)))
 (= X9 (- (* 3 S0) (* 627 S1)))
 (= X9 (- (* 627 S0) (* 3 S1)))
 (= X9 (+ (* 145 S0) S1))
 (= X9 (- (* 145 S0) S1))
 (= X9 (- S0 (* 145 S1)))
 (= X9 (+ (* 145 S0) (* 145 S1)))
 (= X9 (- (* 145 S0) (* 145 S1)))
 (= X9 (+ (* 145 S0) (* 403 S1)))
 (= X9 (- (* 145 S0) (* 403 S1)))
 (= X9 (- (* 403 S0) (* 145 S1)))
 (= X9 (+ (* 145 S0) (* 411 S1)))
 (= X9 (- (* 145 S0) (* 411 S1)))
 (= X9 (- (* 411 S0) (* 145 S1)))
 (= X9 (+ (* 145 S0) (* 109 S1)))
 (= X9 (- (* 145 S0) (* 109 S1)))
 (= X9 (- (* 109 S0) (* 145 S1)))
 (= X9 (+ (* 145 S0) (* 315 S1)))
 (= X9 (- (* 145 S0) (* 315 S1)))
 (= X9 (- (* 315 S0) (* 145 S1)))
 (= X9 (+ (* 145 S0) (* 573 S1)))
 (= X9 (- (* 145 S0) (* 573 S1)))
 (= X9 (- (* 573 S0) (* 145 S1)))
 (= X9 (+ (* 145 S0) (* 627 S1)))
 (= X9 (- (* 145 S0) (* 627 S1)))
 (= X9 (- (* 627 S0) (* 145 S1)))
 (= X9 (+ (* 403 S0) S1))
 (= X9 (- (* 403 S0) S1))
 (= X9 (- S0 (* 403 S1)))
 (= X9 (+ (* 403 S0) (* 403 S1)))
 (= X9 (- (* 403 S0) (* 403 S1)))
 (= X9 (+ (* 403 S0) (* 411 S1)))
 (= X9 (- (* 403 S0) (* 411 S1)))
 (= X9 (- (* 411 S0) (* 403 S1)))
 (= X9 (+ (* 403 S0) (* 109 S1)))
 (= X9 (- (* 403 S0) (* 109 S1)))
 (= X9 (- (* 109 S0) (* 403 S1)))
 (= X9 (+ (* 403 S0) (* 315 S1)))
 (= X9 (- (* 403 S0) (* 315 S1)))
 (= X9 (- (* 315 S0) (* 403 S1)))
 (= X9 (+ (* 403 S0) (* 573 S1)))
 (= X9 (- (* 403 S0) (* 573 S1)))
 (= X9 (- (* 573 S0) (* 403 S1)))
 (= X9 (+ (* 403 S0) (* 627 S1)))
 (= X9 (- (* 403 S0) (* 627 S1)))
 (= X9 (- (* 627 S0) (* 403 S1)))
 (= X9 (+ (* 411 S0) S1))
 (= X9 (- (* 411 S0) S1))
 (= X9 (- S0 (* 411 S1)))
 (= X9 (+ (* 411 S0) (* 411 S1)))
 (= X9 (- (* 411 S0) (* 411 S1)))
 (= X9 (+ (* 411 S0) (* 109 S1)))
 (= X9 (- (* 411 S0) (* 109 S1)))
 (= X9 (- (* 109 S0) (* 411 S1)))
 (= X9 (+ (* 411 S0) (* 315 S1)))
 (= X9 (- (* 411 S0) (* 315 S1)))
 (= X9 (- (* 315 S0) (* 411 S1)))
 (= X9 (+ (* 411 S0) (* 573 S1)))
 (= X9 (- (* 411 S0) (* 573 S1)))
 (= X9 (- (* 573 S0) (* 411 S1)))
 (= X9 (+ (* 411 S0) (* 627 S1)))
 (= X9 (- (* 411 S0) (* 627 S1)))
 (= X9 (- (* 627 S0) (* 411 S1)))
 (= X9 (+ (* 109 S0) S1))
 (= X9 (- (* 109 S0) S1))
 (= X9 (- S0 (* 109 S1)))
 (= X9 (+ (* 109 S0) (* 109 S1)))
 (= X9 (- (* 109 S0) (* 109 S1)))
 (= X9 (+ (* 109 S0) (* 315 S1)))
 (= X9 (- (* 109 S0) (* 315 S1)))
 (= X9 (- (* 315 S0) (* 109 S1)))
 (= X9 (+ (* 109 S0) (* 573 S1)))
 (= X9 (- (* 109 S0) (* 573 S1)))
 (= X9 (- (* 573 S0) (* 109 S1)))
 (= X9 (+ (* 109 S0) (* 627 S1)))
 (= X9 (- (* 109 S0) (* 627 S1)))
 (= X9 (- (* 627 S0) (* 109 S1)))
 (= X9 (+ (* 315 S0) S1))
 (= X9 (- (* 315 S0) S1))
 (= X9 (- S0 (* 315 S1)))
 (= X9 (+ (* 315 S0) (* 315 S1)))
 (= X9 (- (* 315 S0) (* 315 S1)))
 (= X9 (+ (* 315 S0) (* 573 S1)))
 (= X9 (- (* 315 S0) (* 573 S1)))
 (= X9 (- (* 573 S0) (* 315 S1)))
 (= X9 (+ (* 315 S0) (* 627 S1)))
 (= X9 (- (* 315 S0) (* 627 S1)))
 (= X9 (- (* 627 S0) (* 315 S1)))
 (= X9 (+ (* 573 S0) S1))
 (= X9 (- (* 573 S0) S1))
 (= X9 (- S0 (* 573 S1)))
 (= X9 (+ (* 573 S0) (* 573 S1)))
 (= X9 (- (* 573 S0) (* 573 S1)))
 (= X9 (+ (* 573 S0) (* 627 S1)))
 (= X9 (- (* 573 S0) (* 627 S1)))
 (= X9 (- (* 627 S0) (* 573 S1)))
 (= X9 (+ (* 627 S0) S1))
 (= X9 (- (* 627 S0) S1))
 (= X9 (- S0 (* 627 S1)))
 (= X9 (+ (* 627 S0) (* 627 S1)))
 (= X9 (- (* 627 S0) (* 627 S1)))
))
(assert (and (> X9 0) (< X9 2048) (power2 S0) (power2 S1)))
(assert (or
 (= X10 (+ (* 129 S2) S3))
 (= X10 (- (* 129 S2) S3))
 (= X10 (- S2 (* 129 S3)))
 (= X10 (+ (* 129 S2) (* 129 S3)))
 (= X10 (- (* 129 S2) (* 129 S3)))
 (= X10 (+ (* 129 S2) (* 3 S3)))
 (= X10 (- (* 129 S2) (* 3 S3)))
 (= X10 (- (* 3 S2) (* 129 S3)))
 (= X10 (+ (* 129 S2) (* 145 S3)))
 (= X10 (- (* 129 S2) (* 145 S3)))
 (= X10 (- (* 145 S2) (* 129 S3)))
 (= X10 (+ (* 129 S2) (* 403 S3)))
 (= X10 (- (* 129 S2) (* 403 S3)))
 (= X10 (- (* 403 S2) (* 129 S3)))
 (= X10 (+ (* 129 S2) (* 411 S3)))
 (= X10 (- (* 129 S2) (* 411 S3)))
 (= X10 (- (* 411 S2) (* 129 S3)))
 (= X10 (+ (* 129 S2) (* 109 S3)))
 (= X10 (- (* 129 S2) (* 109 S3)))
 (= X10 (- (* 109 S2) (* 129 S3)))
 (= X10 (+ (* 129 S2) (* 315 S3)))
 (= X10 (- (* 129 S2) (* 315 S3)))
 (= X10 (- (* 315 S2) (* 129 S3)))
 (= X10 (+ (* 129 S2) (* 573 S3)))
 (= X10 (- (* 129 S2) (* 573 S3)))
 (= X10 (- (* 573 S2) (* 129 S3)))
 (= X10 (+ (* 129 S2) (* 627 S3)))
 (= X10 (- (* 129 S2) (* 627 S3)))
 (= X10 (- (* 627 S2) (* 129 S3)))
 (= X10 (+ (* 129 S2) (* X9 S3)))
 (= X10 (- (* 129 S2) (* X9 S3)))
 (= X10 (- (* X9 S2) (* 129 S3)))
 (= X10 (+ (* 3 S2) S3))
 (= X10 (- (* 3 S2) S3))
 (= X10 (- S2 (* 3 S3)))
 (= X10 (+ (* 3 S2) (* 3 S3)))
 (= X10 (- (* 3 S2) (* 3 S3)))
 (= X10 (+ (* 3 S2) (* 145 S3)))
 (= X10 (- (* 3 S2) (* 145 S3)))
 (= X10 (- (* 145 S2) (* 3 S3)))
 (= X10 (+ (* 3 S2) (* 403 S3)))
 (= X10 (- (* 3 S2) (* 403 S3)))
 (= X10 (- (* 403 S2) (* 3 S3)))
 (= X10 (+ (* 3 S2) (* 411 S3)))
 (= X10 (- (* 3 S2) (* 411 S3)))
 (= X10 (- (* 411 S2) (* 3 S3)))
 (= X10 (+ (* 3 S2) (* 109 S3)))
 (= X10 (- (* 3 S2) (* 109 S3)))
 (= X10 (- (* 109 S2) (* 3 S3)))
 (= X10 (+ (* 3 S2) (* 315 S3)))
 (= X10 (- (* 3 S2) (* 315 S3)))
 (= X10 (- (* 315 S2) (* 3 S3)))
 (= X10 (+ (* 3 S2) (* 573 S3)))
 (= X10 (- (* 3 S2) (* 573 S3)))
 (= X10 (- (* 573 S2) (* 3 S3)))
 (= X10 (+ (* 3 S2) (* 627 S3)))
 (= X10 (- (* 3 S2) (* 627 S3)))
 (= X10 (- (* 627 S2) (* 3 S3)))
 (= X10 (+ (* 3 S2) (* X9 S3)))
 (= X10 (- (* 3 S2) (* X9 S3)))
 (= X10 (- (* X9 S2) (* 3 S3)))
 (= X10 (+ (* 145 S2) S3))
 (= X10 (- (* 145 S2) S3))
 (= X10 (- S2 (* 145 S3)))
 (= X10 (+ (* 145 S2) (* 145 S3)))
 (= X10 (- (* 145 S2) (* 145 S3)))
 (= X10 (+ (* 145 S2) (* 403 S3)))
 (= X10 (- (* 145 S2) (* 403 S3)))
 (= X10 (- (* 403 S2) (* 145 S3)))
 (= X10 (+ (* 145 S2) (* 411 S3)))
 (= X10 (- (* 145 S2) (* 411 S3)))
 (= X10 (- (* 411 S2) (* 145 S3)))
 (= X10 (+ (* 145 S2) (* 109 S3)))
 (= X10 (- (* 145 S2) (* 109 S3)))
 (= X10 (- (* 109 S2) (* 145 S3)))
 (= X10 (+ (* 145 S2) (* 315 S3)))
 (= X10 (- (* 145 S2) (* 315 S3)))
 (= X10 (- (* 315 S2) (* 145 S3)))
 (= X10 (+ (* 145 S2) (* 573 S3)))
 (= X10 (- (* 145 S2) (* 573 S3)))
 (= X10 (- (* 573 S2) (* 145 S3)))
 (= X10 (+ (* 145 S2) (* 627 S3)))
 (= X10 (- (* 145 S2) (* 627 S3)))
 (= X10 (- (* 627 S2) (* 145 S3)))
 (= X10 (+ (* 145 S2) (* X9 S3)))
 (= X10 (- (* 145 S2) (* X9 S3)))
 (= X10 (- (* X9 S2) (* 145 S3)))
 (= X10 (+ (* 403 S2) S3))
 (= X10 (- (* 403 S2) S3))
 (= X10 (- S2 (* 403 S3)))
 (= X10 (+ (* 403 S2) (* 403 S3)))
 (= X10 (- (* 403 S2) (* 403 S3)))
 (= X10 (+ (* 403 S2) (* 411 S3)))
 (= X10 (- (* 403 S2) (* 411 S3)))
 (= X10 (- (* 411 S2) (* 403 S3)))
 (= X10 (+ (* 403 S2) (* 109 S3)))
 (= X10 (- (* 403 S2) (* 109 S3)))
 (= X10 (- (* 109 S2) (* 403 S3)))
 (= X10 (+ (* 403 S2) (* 315 S3)))
 (= X10 (- (* 403 S2) (* 315 S3)))
 (= X10 (- (* 315 S2) (* 403 S3)))
 (= X10 (+ (* 403 S2) (* 573 S3)))
 (= X10 (- (* 403 S2) (* 573 S3)))
 (= X10 (- (* 573 S2) (* 403 S3)))
 (= X10 (+ (* 403 S2) (* 627 S3)))
 (= X10 (- (* 403 S2) (* 627 S3)))
 (= X10 (- (* 627 S2) (* 403 S3)))
 (= X10 (+ (* 403 S2) (* X9 S3)))
 (= X10 (- (* 403 S2) (* X9 S3)))
 (= X10 (- (* X9 S2) (* 403 S3)))
 (= X10 (+ (* 411 S2) S3))
 (= X10 (- (* 411 S2) S3))
 (= X10 (- S2 (* 411 S3)))
 (= X10 (+ (* 411 S2) (* 411 S3)))
 (= X10 (- (* 411 S2) (* 411 S3)))
 (= X10 (+ (* 411 S2) (* 109 S3)))
 (= X10 (- (* 411 S2) (* 109 S3)))
 (= X10 (- (* 109 S2) (* 411 S3)))
 (= X10 (+ (* 411 S2) (* 315 S3)))
 (= X10 (- (* 411 S2) (* 315 S3)))
 (= X10 (- (* 315 S2) (* 411 S3)))
 (= X10 (+ (* 411 S2) (* 573 S3)))
 (= X10 (- (* 411 S2) (* 573 S3)))
 (= X10 (- (* 573 S2) (* 411 S3)))
 (= X10 (+ (* 411 S2) (* 627 S3)))
 (= X10 (- (* 411 S2) (* 627 S3)))
 (= X10 (- (* 627 S2) (* 411 S3)))
 (= X10 (+ (* 411 S2) (* X9 S3)))
 (= X10 (- (* 411 S2) (* X9 S3)))
 (= X10 (- (* X9 S2) (* 411 S3)))
 (= X10 (+ (* 109 S2) S3))
 (= X10 (- (* 109 S2) S3))
 (= X10 (- S2 (* 109 S3)))
 (= X10 (+ (* 109 S2) (* 109 S3)))
 (= X10 (- (* 109 S2) (* 109 S3)))
 (= X10 (+ (* 109 S2) (* 315 S3)))
 (= X10 (- (* 109 S2) (* 315 S3)))
 (= X10 (- (* 315 S2) (* 109 S3)))
 (= X10 (+ (* 109 S2) (* 573 S3)))
 (= X10 (- (* 109 S2) (* 573 S3)))
 (= X10 (- (* 573 S2) (* 109 S3)))
 (= X10 (+ (* 109 S2) (* 627 S3)))
 (= X10 (- (* 109 S2) (* 627 S3)))
 (= X10 (- (* 627 S2) (* 109 S3)))
 (= X10 (+ (* 109 S2) (* X9 S3)))
 (= X10 (- (* 109 S2) (* X9 S3)))
 (= X10 (- (* X9 S2) (* 109 S3)))
 (= X10 (+ (* 315 S2) S3))
 (= X10 (- (* 315 S2) S3))
 (= X10 (- S2 (* 315 S3)))
 (= X10 (+ (* 315 S2) (* 315 S3)))
 (= X10 (- (* 315 S2) (* 315 S3)))
 (= X10 (+ (* 315 S2) (* 573 S3)))
 (= X10 (- (* 315 S2) (* 573 S3)))
 (= X10 (- (* 573 S2) (* 315 S3)))
 (= X10 (+ (* 315 S2) (* 627 S3)))
 (= X10 (- (* 315 S2) (* 627 S3)))
 (= X10 (- (* 627 S2) (* 315 S3)))
 (= X10 (+ (* 315 S2) (* X9 S3)))
 (= X10 (- (* 315 S2) (* X9 S3)))
 (= X10 (- (* X9 S2) (* 315 S3)))
 (= X10 (+ (* 573 S2) S3))
 (= X10 (- (* 573 S2) S3))
 (= X10 (- S2 (* 573 S3)))
 (= X10 (+ (* 573 S2) (* 573 S3)))
 (= X10 (- (* 573 S2) (* 573 S3)))
 (= X10 (+ (* 573 S2) (* 627 S3)))
 (= X10 (- (* 573 S2) (* 627 S3)))
 (= X10 (- (* 627 S2) (* 573 S3)))
 (= X10 (+ (* 573 S2) (* X9 S3)))
 (= X10 (- (* 573 S2) (* X9 S3)))
 (= X10 (- (* X9 S2) (* 573 S3)))
 (= X10 (+ (* 627 S2) S3))
 (= X10 (- (* 627 S2) S3))
 (= X10 (- S2 (* 627 S3)))
 (= X10 (+ (* 627 S2) (* 627 S3)))
 (= X10 (- (* 627 S2) (* 627 S3)))
 (= X10 (+ (* 627 S2) (* X9 S3)))
 (= X10 (- (* 627 S2) (* X9 S3)))
 (= X10 (- (* X9 S2) (* 627 S3)))
 (= X10 (+ (* X9 S2) S3))
 (= X10 (- (* X9 S2) S3))
 (= X10 (- S2 (* X9 S3)))
 (= X10 (+ (* X9 S2) (* X9 S3)))
 (= X10 (- (* X9 S2) (* X9 S3)))
))
(assert (and (> X10 0) (< X10 2048) (power2 S2) (power2 S3)))
(assert
 (= X10 947)
)
(check-sat)
(exit)
